c HARD Instance [UNSATISFIABLE]
c Converted from XSCP3 (http://www.xcsp.org) format to CNF (http://tsoh.org/sCOP/)
c Shared by www.peqnp.science (https://twitter.com/maxtuno)
p cnf 110 561                                                  
10 9 8 7 6 5 4 3 2 1 0
20 19 18 17 16 15 14 13 12 11 0
30 29 28 27 26 25 24 23 22 21 0
40 39 38 37 36 35 34 33 32 31 0
50 49 48 47 46 45 44 43 42 41 0
60 59 58 57 56 55 54 53 52 51 0
70 69 68 67 66 65 64 63 62 61 0
80 79 78 77 76 75 74 73 72 71 0
90 89 88 87 86 85 84 83 82 81 0
100 99 98 97 96 95 94 93 92 91 0
110 109 108 107 106 105 104 103 102 101 0
-11 -1 0
-21 -1 0
-31 -1 0
-41 -1 0
-51 -1 0
-61 -1 0
-71 -1 0
-81 -1 0
-91 -1 0
-101 -1 0
-21 -11 0
-31 -11 0
-41 -11 0
-51 -11 0
-61 -11 0
-71 -11 0
-81 -11 0
-91 -11 0
-101 -11 0
-31 -21 0
-41 -21 0
-51 -21 0
-61 -21 0
-71 -21 0
-81 -21 0
-91 -21 0
-101 -21 0
-41 -31 0
-51 -31 0
-61 -31 0
-71 -31 0
-81 -31 0
-91 -31 0
-101 -31 0
-51 -41 0
-61 -41 0
-71 -41 0
-81 -41 0
-91 -41 0
-101 -41 0
-61 -51 0
-71 -51 0
-81 -51 0
-91 -51 0
-101 -51 0
-71 -61 0
-81 -61 0
-91 -61 0
-101 -61 0
-81 -71 0
-91 -71 0
-101 -71 0
-91 -81 0
-101 -81 0
-101 -91 0
-12 -2 0
-22 -2 0
-32 -2 0
-42 -2 0
-52 -2 0
-62 -2 0
-72 -2 0
-82 -2 0
-92 -2 0
-102 -2 0
-22 -12 0
-32 -12 0
-42 -12 0
-52 -12 0
-62 -12 0
-72 -12 0
-82 -12 0
-92 -12 0
-102 -12 0
-32 -22 0
-42 -22 0
-52 -22 0
-62 -22 0
-72 -22 0
-82 -22 0
-92 -22 0
-102 -22 0
-42 -32 0
-52 -32 0
-62 -32 0
-72 -32 0
-82 -32 0
-92 -32 0
-102 -32 0
-52 -42 0
-62 -42 0
-72 -42 0
-82 -42 0
-92 -42 0
-102 -42 0
-62 -52 0
-72 -52 0
-82 -52 0
-92 -52 0
-102 -52 0
-72 -62 0
-82 -62 0
-92 -62 0
-102 -62 0
-82 -72 0
-92 -72 0
-102 -72 0
-92 -82 0
-102 -82 0
-102 -92 0
-13 -3 0
-23 -3 0
-33 -3 0
-43 -3 0
-53 -3 0
-63 -3 0
-73 -3 0
-83 -3 0
-93 -3 0
-103 -3 0
-23 -13 0
-33 -13 0
-43 -13 0
-53 -13 0
-63 -13 0
-73 -13 0
-83 -13 0
-93 -13 0
-103 -13 0
-33 -23 0
-43 -23 0
-53 -23 0
-63 -23 0
-73 -23 0
-83 -23 0
-93 -23 0
-103 -23 0
-43 -33 0
-53 -33 0
-63 -33 0
-73 -33 0
-83 -33 0
-93 -33 0
-103 -33 0
-53 -43 0
-63 -43 0
-73 -43 0
-83 -43 0
-93 -43 0
-103 -43 0
-63 -53 0
-73 -53 0
-83 -53 0
-93 -53 0
-103 -53 0
-73 -63 0
-83 -63 0
-93 -63 0
-103 -63 0
-83 -73 0
-93 -73 0
-103 -73 0
-93 -83 0
-103 -83 0
-103 -93 0
-14 -4 0
-24 -4 0
-34 -4 0
-44 -4 0
-54 -4 0
-64 -4 0
-74 -4 0
-84 -4 0
-94 -4 0
-104 -4 0
-24 -14 0
-34 -14 0
-44 -14 0
-54 -14 0
-64 -14 0
-74 -14 0
-84 -14 0
-94 -14 0
-104 -14 0
-34 -24 0
-44 -24 0
-54 -24 0
-64 -24 0
-74 -24 0
-84 -24 0
-94 -24 0
-104 -24 0
-44 -34 0
-54 -34 0
-64 -34 0
-74 -34 0
-84 -34 0
-94 -34 0
-104 -34 0
-54 -44 0
-64 -44 0
-74 -44 0
-84 -44 0
-94 -44 0
-104 -44 0
-64 -54 0
-74 -54 0
-84 -54 0
-94 -54 0
-104 -54 0
-74 -64 0
-84 -64 0
-94 -64 0
-104 -64 0
-84 -74 0
-94 -74 0
-104 -74 0
-94 -84 0
-104 -84 0
-104 -94 0
-15 -5 0
-25 -5 0
-35 -5 0
-45 -5 0
-55 -5 0
-65 -5 0
-75 -5 0
-85 -5 0
-95 -5 0
-105 -5 0
-25 -15 0
-35 -15 0
-45 -15 0
-55 -15 0
-65 -15 0
-75 -15 0
-85 -15 0
-95 -15 0
-105 -15 0
-35 -25 0
-45 -25 0
-55 -25 0
-65 -25 0
-75 -25 0
-85 -25 0
-95 -25 0
-105 -25 0
-45 -35 0
-55 -35 0
-65 -35 0
-75 -35 0
-85 -35 0
-95 -35 0
-105 -35 0
-55 -45 0
-65 -45 0
-75 -45 0
-85 -45 0
-95 -45 0
-105 -45 0
-65 -55 0
-75 -55 0
-85 -55 0
-95 -55 0
-105 -55 0
-75 -65 0
-85 -65 0
-95 -65 0
-105 -65 0
-85 -75 0
-95 -75 0
-105 -75 0
-95 -85 0
-105 -85 0
-105 -95 0
-16 -6 0
-26 -6 0
-36 -6 0
-46 -6 0
-56 -6 0
-66 -6 0
-76 -6 0
-86 -6 0
-96 -6 0
-106 -6 0
-26 -16 0
-36 -16 0
-46 -16 0
-56 -16 0
-66 -16 0
-76 -16 0
-86 -16 0
-96 -16 0
-106 -16 0
-36 -26 0
-46 -26 0
-56 -26 0
-66 -26 0
-76 -26 0
-86 -26 0
-96 -26 0
-106 -26 0
-46 -36 0
-56 -36 0
-66 -36 0
-76 -36 0
-86 -36 0
-96 -36 0
-106 -36 0
-56 -46 0
-66 -46 0
-76 -46 0
-86 -46 0
-96 -46 0
-106 -46 0
-66 -56 0
-76 -56 0
-86 -56 0
-96 -56 0
-106 -56 0
-76 -66 0
-86 -66 0
-96 -66 0
-106 -66 0
-86 -76 0
-96 -76 0
-106 -76 0
-96 -86 0
-106 -86 0
-106 -96 0
-17 -7 0
-27 -7 0
-37 -7 0
-47 -7 0
-57 -7 0
-67 -7 0
-77 -7 0
-87 -7 0
-97 -7 0
-107 -7 0
-27 -17 0
-37 -17 0
-47 -17 0
-57 -17 0
-67 -17 0
-77 -17 0
-87 -17 0
-97 -17 0
-107 -17 0
-37 -27 0
-47 -27 0
-57 -27 0
-67 -27 0
-77 -27 0
-87 -27 0
-97 -27 0
-107 -27 0
-47 -37 0
-57 -37 0
-67 -37 0
-77 -37 0
-87 -37 0
-97 -37 0
-107 -37 0
-57 -47 0
-67 -47 0
-77 -47 0
-87 -47 0
-97 -47 0
-107 -47 0
-67 -57 0
-77 -57 0
-87 -57 0
-97 -57 0
-107 -57 0
-77 -67 0
-87 -67 0
-97 -67 0
-107 -67 0
-87 -77 0
-97 -77 0
-107 -77 0
-97 -87 0
-107 -87 0
-107 -97 0
-18 -8 0
-28 -8 0
-38 -8 0
-48 -8 0
-58 -8 0
-68 -8 0
-78 -8 0
-88 -8 0
-98 -8 0
-108 -8 0
-28 -18 0
-38 -18 0
-48 -18 0
-58 -18 0
-68 -18 0
-78 -18 0
-88 -18 0
-98 -18 0
-108 -18 0
-38 -28 0
-48 -28 0
-58 -28 0
-68 -28 0
-78 -28 0
-88 -28 0
-98 -28 0
-108 -28 0
-48 -38 0
-58 -38 0
-68 -38 0
-78 -38 0
-88 -38 0
-98 -38 0
-108 -38 0
-58 -48 0
-68 -48 0
-78 -48 0
-88 -48 0
-98 -48 0
-108 -48 0
-68 -58 0
-78 -58 0
-88 -58 0
-98 -58 0
-108 -58 0
-78 -68 0
-88 -68 0
-98 -68 0
-108 -68 0
-88 -78 0
-98 -78 0
-108 -78 0
-98 -88 0
-108 -88 0
-108 -98 0
-19 -9 0
-29 -9 0
-39 -9 0
-49 -9 0
-59 -9 0
-69 -9 0
-79 -9 0
-89 -9 0
-99 -9 0
-109 -9 0
-29 -19 0
-39 -19 0
-49 -19 0
-59 -19 0
-69 -19 0
-79 -19 0
-89 -19 0
-99 -19 0
-109 -19 0
-39 -29 0
-49 -29 0
-59 -29 0
-69 -29 0
-79 -29 0
-89 -29 0
-99 -29 0
-109 -29 0
-49 -39 0
-59 -39 0
-69 -39 0
-79 -39 0
-89 -39 0
-99 -39 0
-109 -39 0
-59 -49 0
-69 -49 0
-79 -49 0
-89 -49 0
-99 -49 0
-109 -49 0
-69 -59 0
-79 -59 0
-89 -59 0
-99 -59 0
-109 -59 0
-79 -69 0
-89 -69 0
-99 -69 0
-109 -69 0
-89 -79 0
-99 -79 0
-109 -79 0
-99 -89 0
-109 -89 0
-109 -99 0
-20 -10 0
-30 -10 0
-40 -10 0
-50 -10 0
-60 -10 0
-70 -10 0
-80 -10 0
-90 -10 0
-100 -10 0
-110 -10 0
-30 -20 0
-40 -20 0
-50 -20 0
-60 -20 0
-70 -20 0
-80 -20 0
-90 -20 0
-100 -20 0
-110 -20 0
-40 -30 0
-50 -30 0
-60 -30 0
-70 -30 0
-80 -30 0
-90 -30 0
-100 -30 0
-110 -30 0
-50 -40 0
-60 -40 0
-70 -40 0
-80 -40 0
-90 -40 0
-100 -40 0
-110 -40 0
-60 -50 0
-70 -50 0
-80 -50 0
-90 -50 0
-100 -50 0
-110 -50 0
-70 -60 0
-80 -60 0
-90 -60 0
-100 -60 0
-110 -60 0
-80 -70 0
-90 -70 0
-100 -70 0
-110 -70 0
-90 -80 0
-100 -80 0
-110 -80 0
-100 -90 0
-110 -90 0
-110 -100 0
